Maximize
  - 18 x0 - 40 x1 + x2 + 24 x3 - 2 x4 + 0 x5 - x6 - 42 x7 + 23 x8 + 0 x9
   - 18 x10 + 0 x11 + 0 x12 + 0 x13 + 6 x14 - 28 x15 + 44 x16 + 37 x17
   + 0 x18 - 2 x19 + 0 x20 - 39 x21 - 48 x22 + 35 x23 + 35 x24 + 0 x25
   - 17 x26 - 32 x27 + 0 x28 - 45 x29 - 42 x30 - 16 x31 + 6 x32 + 0 x33
   + 26 x34 - 13 x35 + 6 x36 + 23 x37 + 0 x38 + 5 x39 + 0 x40 + 29 x41
   + 43 x42 - 10 x43 + 27 x44 + 0 x45 - 30 x46 - 21 x47 + 0 x48 - 2 x49
   - 26 x50 + 34 x51 + 44 x52 + 0 x53 + 0 x54 - 15 x55 + 0 x56 + 0 x57
   - 48 x58 + 0 x59 + 0 x60 - 15 x61 - 38 x62 - 38 x63 + 0 x64 - 12 x65
   + 48 x66 + 42 x67 + 40 x68 - 38 x69 - x70 - 39 x71 - 6 x72 + 47 x73
   - 35 x74 - 24 x75 + 0 x76 + 13 x77 - 6 x78 + 0 x79 + [ 20 x0 ^2
   + 26 x0 * x1 + 14 x0 * x2 - 12 x0 * x3 - 80 x0 * x4 + 10 x0 * x5
   - 18 x0 * x6 + 48 x0 * x7 + 2 x0 * x10 - 88 x0 * x12 + 66 x0 * x13
   + 50 x0 * x14 - 16 x0 * x15 + 98 x0 * x16 + 96 x0 * x18 - 14 x0 * x19
   - 64 x0 * x20 + 40 x0 * x21 - 32 x0 * x22 + 90 x0 * x26 + 44 x0 * x27
   + 60 x0 * x28 + 84 x0 * x31 - 26 x0 * x32 + 54 x0 * x33 + 8 x0 * x34
   + 66 x0 * x35 + 50 x0 * x37 - 26 x0 * x38 - 4 x0 * x39 + 50 x0 * x41
   + 14 x0 * x42 + 58 x0 * x43 - 26 x0 * x44 + 24 x0 * x45 + 38 x0 * x46
   - 78 x0 * x47 - 28 x0 * x48 + 60 x0 * x50 - 42 x0 * x52 + 24 x0 * x53
   + 76 x0 * x54 - 88 x0 * x55 + 90 x0 * x56 + 38 x0 * x57 - 78 x0 * x58
   - 44 x0 * x60 - 50 x0 * x62 - 18 x0 * x63 + 70 x0 * x64 + 58 x0 * x67
   + 46 x0 * x68 + 42 x0 * x69 + 50 x0 * x71 - 16 x0 * x72 + 60 x0 * x73
   - 26 x0 * x74 + 48 x0 * x76 + 18 x0 * x77 - 42 x0 * x78 + 98 x0 * x79
   - 6 x1 * x6 - 34 x1 * x9 - 8 x1 * x10 + 44 x1 * x12 + 22 x1 * x13
   + 88 x1 * x14 - 58 x1 * x15 + 26 x1 * x16 - 54 x1 * x18 + 64 x1 * x19
   - 32 x1 * x20 + 6 x1 * x21 + 54 x1 * x22 - 2 x1 * x23 - 28 x1 * x24
   - 16 x1 * x25 + 76 x1 * x26 + 2 x1 * x27 - 8 x1 * x28 + 36 x1 * x29
   - 10 x1 * x30 + 28 x1 * x31 - 52 x1 * x32 - 70 x1 * x34 - 98 x1 * x35
   + 16 x1 * x36 + 70 x1 * x38 + 22 x1 * x40 - 42 x1 * x42 + 86 x1 * x44
   + 42 x1 * x47 - 60 x1 * x48 - 30 x1 * x50 - 60 x1 * x52 - 34 x1 * x53
   - 62 x1 * x55 + 68 x1 * x56 - 90 x1 * x57 + 78 x1 * x58 - 92 x1 * x60
   + 58 x1 * x61 + 72 x1 * x63 + 66 x1 * x66 + 8 x1 * x67 - 70 x1 * x68
   - 44 x1 * x69 - 34 x1 * x70 - 16 x1 * x71 - 92 x1 * x72 + 16 x1 * x73
   + 20 x1 * x76 - 48 x1 * x77 + 22 x1 * x78 + 46 x1 * x79 + 13 x2 ^2
   + 10 x2 * x3 - 52 x2 * x4 + 20 x2 * x6 + 16 x2 * x8 + 32 x2 * x10
   - 44 x2 * x12 - 70 x2 * x13 + 22 x2 * x14 + 48 x2 * x15 + 62 x2 * x16
   - 60 x2 * x19 - 60 x2 * x20 - 76 x2 * x21 - 36 x2 * x22 - 78 x2 * x23
   - 6 x2 * x25 + 32 x2 * x28 + 94 x2 * x29 - 24 x2 * x30 + 74 x2 * x31
   - 44 x2 * x32 + 38 x2 * x33 - 6 x2 * x34 + 4 x2 * x36 + 96 x2 * x37
   - 12 x2 * x38 + 40 x2 * x40 - 32 x2 * x42 - 2 x2 * x45 - 16 x2 * x46
   - 32 x2 * x49 + 78 x2 * x50 - 42 x2 * x52 + 4 x2 * x53 - 42 x2 * x55
   - 14 x2 * x56 - 60 x2 * x57 - 16 x2 * x62 - 44 x2 * x63 + 10 x2 * x65
   + 50 x2 * x66 + 74 x2 * x67 + 78 x2 * x69 - 40 x2 * x70 + 70 x2 * x71
   - 28 x2 * x73 + 16 x2 * x74 - 34 x2 * x75 + 24 x2 * x77 - 40 x2 * x78
   - 23 x3 ^2 - 68 x3 * x5 + 80 x3 * x7 - 60 x3 * x8 + 86 x3 * x10
   + 90 x3 * x11 - 40 x3 * x12 - 68 x3 * x13 + 10 x3 * x14 - 12 x3 * x15
   + 76 x3 * x16 + 38 x3 * x17 + 74 x3 * x19 + 40 x3 * x21 + 86 x3 * x23
   + 48 x3 * x27 + 36 x3 * x28 - 56 x3 * x29 - 64 x3 * x30 + 46 x3 * x31
   - 38 x3 * x32 + 18 x3 * x33 - 10 x3 * x35 + 28 x3 * x38 + 8 x3 * x39
   - 82 x3 * x42 + 46 x3 * x43 - 96 x3 * x44 + 40 x3 * x45 - 70 x3 * x47
   + 84 x3 * x48 - 88 x3 * x49 - 26 x3 * x50 - 14 x3 * x51 + 40 x3 * x52
   - 22 x3 * x53 + 74 x3 * x54 - 48 x3 * x56 - 90 x3 * x57 + 64 x3 * x58
   - 14 x3 * x60 - 60 x3 * x61 + 40 x3 * x62 + 32 x3 * x63 + 14 x3 * x64
   + 92 x3 * x65 - 48 x3 * x66 + 90 x3 * x68 + 58 x3 * x69 - 12 x3 * x70
   + 84 x3 * x73 - 46 x3 * x74 - 64 x3 * x75 + 82 x3 * x76 - 46 x3 * x77
   - 52 x3 * x79 - 38 x4 ^2 - 78 x4 * x5 + 76 x4 * x6 + 50 x4 * x7
   - 38 x4 * x8 + 86 x4 * x9 - 84 x4 * x11 + 94 x4 * x12 + 38 x4 * x13
   - 2 x4 * x15 + 62 x4 * x16 + 96 x4 * x18 + 62 x4 * x19 + 22 x4 * x21
   + 8 x4 * x22 - 68 x4 * x23 - 8 x4 * x24 + 2 x4 * x26 - 24 x4 * x27
   + 16 x4 * x28 - 16 x4 * x29 - 6 x4 * x31 - 30 x4 * x32 - 42 x4 * x33
   - 10 x4 * x34 + 24 x4 * x35 - 28 x4 * x36 - 30 x4 * x39 - 18 x4 * x40
   - 88 x4 * x41 - 68 x4 * x42 + 48 x4 * x43 - 42 x4 * x44 + 32 x4 * x46
   - 24 x4 * x47 - 2 x4 * x48 - 96 x4 * x51 - 74 x4 * x54 + 20 x4 * x57
   + 72 x4 * x58 + 58 x4 * x61 + 88 x4 * x64 + 74 x4 * x66 - 12 x4 * x67
   - 10 x4 * x68 + 84 x4 * x69 + 58 x4 * x70 - 52 x4 * x73 - 70 x4 * x74
   + 84 x4 * x75 + 88 x4 * x78 - 70 x5 * x6 + 16 x5 * x7 + 26 x5 * x8
   - 82 x5 * x9 + 64 x5 * x10 - 16 x5 * x11 - 88 x5 * x12 - 76 x5 * x13
   - 62 x5 * x14 + 70 x5 * x16 + 46 x5 * x17 + 66 x5 * x18 + 18 x5 * x20
   + 58 x5 * x21 - 44 x5 * x23 - 52 x5 * x25 - 38 x5 * x27 + 44 x5 * x28
   - 36 x5 * x30 + 92 x5 * x31 + 38 x5 * x32 - 94 x5 * x34 + 8 x5 * x35
   - 22 x5 * x37 + 78 x5 * x38 - 12 x5 * x39 + 66 x5 * x41 - 80 x5 * x42
   - 84 x5 * x44 - 24 x5 * x45 - 86 x5 * x46 + 6 x5 * x47 + 36 x5 * x48
   - 16 x5 * x49 - 96 x5 * x50 - 18 x5 * x51 + 62 x5 * x53 + 52 x5 * x54
   - 40 x5 * x55 + 64 x5 * x56 - 86 x5 * x58 + 14 x5 * x59 - 92 x5 * x61
   - 98 x5 * x62 + 36 x5 * x64 + 82 x5 * x66 + 38 x5 * x67 + 8 x5 * x69
   + 78 x5 * x70 + 68 x5 * x71 + 10 x5 * x73 - 6 x5 * x74 + 8 x5 * x75
   + 24 x5 * x76 - 66 x5 * x78 + 60 x5 * x79 + 40 x6 ^2 - 8 x6 * x7
   + 74 x6 * x8 - 14 x6 * x9 - 28 x6 * x10 - 96 x6 * x12 - 8 x6 * x13
   - 6 x6 * x15 - 98 x6 * x16 + 52 x6 * x18 + 50 x6 * x19 + 26 x6 * x20
   + 72 x6 * x21 + 2 x6 * x22 + 30 x6 * x23 - 34 x6 * x24 - 32 x6 * x25
   + 38 x6 * x26 - 40 x6 * x27 + 68 x6 * x28 + 94 x6 * x30 + 20 x6 * x31
   - 58 x6 * x33 - 36 x6 * x36 - 6 x6 * x38 - 78 x6 * x39 - 26 x6 * x41
   - 12 x6 * x42 - 66 x6 * x43 + 96 x6 * x44 - 84 x6 * x45 + 42 x6 * x46
   + 6 x6 * x47 + 18 x6 * x48 - 94 x6 * x50 - 36 x6 * x52 + 24 x6 * x53
   - 44 x6 * x55 - 28 x6 * x57 - 12 x6 * x60 + 66 x6 * x62 - 90 x6 * x63
   - 20 x6 * x64 + 28 x6 * x65 + 42 x6 * x66 - 48 x6 * x67 + 94 x6 * x68
   - 84 x6 * x69 + 32 x6 * x70 - 62 x6 * x73 - 10 x6 * x75 + 72 x6 * x76
   - 18 x6 * x77 + 2 x6 * x78 + 12 x6 * x79 - 86 x7 * x8 + 70 x7 * x9
   - 6 x7 * x10 - 54 x7 * x11 - 68 x7 * x13 - 12 x7 * x14 - 80 x7 * x15
   + 76 x7 * x16 + 20 x7 * x17 + 12 x7 * x18 - 98 x7 * x19 + 72 x7 * x20
   - 78 x7 * x21 + 32 x7 * x22 + 18 x7 * x23 + 34 x7 * x25 + 14 x7 * x26
   + 96 x7 * x27 + 16 x7 * x28 + 30 x7 * x32 + 6 x7 * x33 - 84 x7 * x34
   + 38 x7 * x36 - 58 x7 * x37 + 92 x7 * x38 + 8 x7 * x39 + 4 x7 * x40
   + 26 x7 * x42 + 14 x7 * x43 - 82 x7 * x44 + 40 x7 * x45 + 4 x7 * x48
   - 26 x7 * x50 - 24 x7 * x51 - 32 x7 * x52 + 40 x7 * x53 - 68 x7 * x54
   + 96 x7 * x56 - 78 x7 * x57 - 22 x7 * x58 - 52 x7 * x59 - 24 x7 * x60
   + 56 x7 * x61 + 80 x7 * x62 - 16 x7 * x63 - 60 x7 * x64 + 28 x7 * x65
   - 60 x7 * x66 - 78 x7 * x67 - 96 x7 * x68 + 98 x7 * x69 + 4 x7 * x72
   + 60 x7 * x73 + 20 x7 * x74 + 20 x7 * x75 + 76 x7 * x76 + 8 x7 * x77
   + 60 x7 * x79 - 46 x8 ^2 + 36 x8 * x9 + 20 x8 * x11 + 64 x8 * x13
   - 20 x8 * x14 - 96 x8 * x15 + 32 x8 * x16 + 32 x8 * x18 + 42 x8 * x19
   + 62 x8 * x21 + 38 x8 * x22 + 30 x8 * x23 + 94 x8 * x24 - 18 x8 * x25
   - 30 x8 * x27 - 12 x8 * x28 - 6 x8 * x29 + 8 x8 * x31 + 64 x8 * x32
   - 62 x8 * x33 + 40 x8 * x35 - 12 x8 * x36 - 84 x8 * x37 - 84 x8 * x38
   + 94 x8 * x39 + 34 x8 * x40 - 76 x8 * x41 - 84 x8 * x42 - 54 x8 * x43
   - 20 x8 * x44 - 78 x8 * x45 + 34 x8 * x48 - 16 x8 * x50 - 64 x8 * x51
   - 28 x8 * x52 - 98 x8 * x53 - 4 x8 * x54 + 58 x8 * x56 - 78 x8 * x57
   + 60 x8 * x58 - 90 x8 * x60 + 6 x8 * x61 - 6 x8 * x62 - 6 x8 * x63
   + 40 x8 * x64 + 26 x8 * x66 + 86 x8 * x67 - 94 x8 * x69 - 66 x8 * x70
   + 26 x8 * x71 + 32 x8 * x73 + 38 x8 * x74 - 82 x8 * x76 - 72 x8 * x78
   - 88 x9 * x11 + 94 x9 * x13 - 62 x9 * x14 - 92 x9 * x15 + 20 x9 * x16
   + 64 x9 * x18 - 82 x9 * x19 - 8 x9 * x20 - 40 x9 * x21 + 90 x9 * x22
   - 70 x9 * x24 + 56 x9 * x26 + 94 x9 * x27 - 68 x9 * x29 - 20 x9 * x30
   + 10 x9 * x31 - 68 x9 * x33 + 76 x9 * x35 + 94 x9 * x38 - 80 x9 * x39
   + 92 x9 * x41 + 76 x9 * x42 + 72 x9 * x45 + 82 x9 * x46 - 72 x9 * x47
   + 6 x9 * x48 - 92 x9 * x49 + 16 x9 * x50 - 34 x9 * x51 - 12 x9 * x52
   - 84 x9 * x53 - 58 x9 * x54 - 2 x9 * x55 - 2 x9 * x57 - 78 x9 * x58
   - 84 x9 * x59 + 76 x9 * x60 - 96 x9 * x61 + 34 x9 * x62 - 46 x9 * x63
   + 34 x9 * x64 - 98 x9 * x68 + 74 x9 * x69 + 76 x9 * x70 - 30 x9 * x71
   + 80 x9 * x73 - 82 x9 * x74 - 16 x9 * x75 + 42 x9 * x77 - 66 x9 * x79
   - 16 x10 ^2 + 82 x10 * x11 + 34 x10 * x12 - 76 x10 * x13 - 10 x10 * x14
   + 30 x10 * x15 - 38 x10 * x16 - 8 x10 * x17 - 52 x10 * x18
   - 62 x10 * x19 - 84 x10 * x20 + 40 x10 * x21 - 32 x10 * x22
   - 40 x10 * x23 - 54 x10 * x24 - 50 x10 * x25 + 32 x10 * x26
   + 8 x10 * x28 - 60 x10 * x29 + 48 x10 * x31 + 54 x10 * x32
   - 50 x10 * x33 + 34 x10 * x36 + 90 x10 * x37 - 44 x10 * x38
   + 78 x10 * x39 - 10 x10 * x40 - 16 x10 * x41 - 46 x10 * x44
   - 4 x10 * x45 - 90 x10 * x47 + 82 x10 * x49 + 76 x10 * x50
   - 22 x10 * x51 + 14 x10 * x53 - 90 x10 * x56 + 40 x10 * x57
   - 44 x10 * x58 + 2 x10 * x59 + 40 x10 * x60 - 72 x10 * x61
   + 28 x10 * x62 - 58 x10 * x63 - 66 x10 * x64 + 62 x10 * x65
   - 8 x10 * x66 + 32 x10 * x67 - 46 x10 * x68 - 28 x10 * x70
   - 70 x10 * x71 - 46 x10 * x72 - 74 x10 * x73 + 34 x10 * x74
   - 4 x10 * x75 - 66 x10 * x76 - 68 x10 * x78 + 29 x11 ^2 - 4 x11 * x12
   + 14 x11 * x13 + 48 x11 * x15 - 66 x11 * x16 - 90 x11 * x17
   - 16 x11 * x18 + 70 x11 * x19 - 76 x11 * x20 - 68 x11 * x21
   - 28 x11 * x22 - 32 x11 * x23 - 46 x11 * x24 + 58 x11 * x25
   - 72 x11 * x27 - 12 x11 * x30 + 20 x11 * x31 + 58 x11 * x32
   - 64 x11 * x33 - 24 x11 * x34 + 58 x11 * x35 + 22 x11 * x37
   + 86 x11 * x38 + 80 x11 * x39 - 68 x11 * x40 + 80 x11 * x41
   - 4 x11 * x42 - 62 x11 * x43 - 32 x11 * x44 + 56 x11 * x45
   + 18 x11 * x46 - 18 x11 * x47 - 38 x11 * x48 + 6 x11 * x49
   - 20 x11 * x50 + 26 x11 * x51 + 60 x11 * x52 + 34 x11 * x53
   - 78 x11 * x56 - 46 x11 * x57 + 92 x11 * x58 - 62 x11 * x59
   + 18 x11 * x60 - 58 x11 * x61 + 72 x11 * x62 - 70 x11 * x63
   - 72 x11 * x64 + 42 x11 * x65 - 44 x11 * x66 + 6 x11 * x67
   - 86 x11 * x68 + 84 x11 * x69 + 54 x11 * x71 + 16 x11 * x72
   + 88 x11 * x73 - 62 x11 * x74 + 36 x11 * x75 + 78 x11 * x76
   - 28 x11 * x77 - 34 x11 * x78 - 22 x11 * x79 - 3 x12 ^2 - 36 x12 * x13
   - 8 x12 * x14 + 52 x12 * x15 + 98 x12 * x16 - 2 x12 * x17 - 2 x12 * x18
   + 50 x12 * x19 + 28 x12 * x20 - 70 x12 * x21 + 72 x12 * x22
   + 70 x12 * x23 + 54 x12 * x24 + 2 x12 * x25 + 26 x12 * x26
   + 98 x12 * x27 + 8 x12 * x28 + 10 x12 * x29 + 36 x12 * x33
   + 84 x12 * x34 + 70 x12 * x35 - 62 x12 * x36 + 2 x12 * x38 - 2 x12 * x39
   + 68 x12 * x40 - 84 x12 * x41 - 74 x12 * x42 + 80 x12 * x43
   + 66 x12 * x45 + 62 x12 * x46 + 88 x12 * x47 + 46 x12 * x49
   - 98 x12 * x50 - 50 x12 * x51 - 12 x12 * x52 - 92 x12 * x53
   + 98 x12 * x54 + 48 x12 * x55 - 18 x12 * x56 - 82 x12 * x57
   - 70 x12 * x58 - 16 x12 * x60 - 88 x12 * x62 + 30 x12 * x63
   - 52 x12 * x64 - 64 x12 * x65 - 8 x12 * x66 - 36 x12 * x68
   + 78 x12 * x69 - 48 x12 * x70 + 64 x12 * x71 - 82 x12 * x72
   - 54 x12 * x73 + 40 x12 * x74 + 24 x12 * x75 - 62 x12 * x77
   + 62 x12 * x78 - 39 x13 ^2 - 94 x13 * x17 - 40 x13 * x20 - 64 x13 * x21
   + 30 x13 * x22 + 6 x13 * x24 + 14 x13 * x26 - 18 x13 * x27
   + 24 x13 * x30 - 38 x13 * x31 + 50 x13 * x32 + 96 x13 * x33
   + 28 x13 * x34 + 68 x13 * x36 + 80 x13 * x37 - 24 x13 * x38
   + 84 x13 * x39 + 4 x13 * x40 + 28 x13 * x41 + 66 x13 * x42
   + 20 x13 * x43 + 20 x13 * x44 + 50 x13 * x45 - 66 x13 * x46
   - 64 x13 * x48 + 92 x13 * x49 + 76 x13 * x50 - 80 x13 * x51
   - 12 x13 * x52 - 84 x13 * x53 - 8 x13 * x54 - 30 x13 * x55
   + 80 x13 * x56 - 90 x13 * x59 - 16 x13 * x60 - 76 x13 * x61
   + 60 x13 * x62 + 72 x13 * x63 - 20 x13 * x67 + 54 x13 * x69
   + 34 x13 * x70 + 96 x13 * x71 - 92 x13 * x72 + 44 x13 * x74
   + 64 x13 * x75 + 6 x13 * x76 + 8 x13 * x77 + 40 x13 * x79 - 19 x14 ^2
   + 72 x14 * x15 + 48 x14 * x18 + 86 x14 * x20 + 92 x14 * x22
   + 52 x14 * x23 + 38 x14 * x25 - 54 x14 * x26 - 36 x14 * x29
   + 8 x14 * x30 - 44 x14 * x32 - 70 x14 * x33 - 16 x14 * x34 - 8 x14 * x35
   - 60 x14 * x36 - 60 x14 * x37 - 14 x14 * x38 + 96 x14 * x40
   + 30 x14 * x42 + 60 x14 * x44 - 30 x14 * x46 + 34 x14 * x48
   + 62 x14 * x51 + 72 x14 * x52 + 96 x14 * x54 - 50 x14 * x55
   + 18 x14 * x56 + 82 x14 * x60 + 12 x14 * x62 + 50 x14 * x63
   + 50 x14 * x64 + 84 x14 * x66 + 74 x14 * x68 + 12 x14 * x69
   + 84 x14 * x70 + 74 x14 * x71 + 30 x14 * x72 - 34 x14 * x73
   - 58 x14 * x76 - 12 x14 * x77 + 46 x14 * x79 + x15 ^2 - 32 x15 * x16
   - 12 x15 * x17 + 38 x15 * x18 + 42 x15 * x19 + 38 x15 * x20
   + 4 x15 * x23 - 78 x15 * x24 - 56 x15 * x26 + 94 x15 * x27
   - 28 x15 * x28 - 22 x15 * x29 - 12 x15 * x32 - 56 x15 * x33
   + 40 x15 * x34 + 66 x15 * x35 + 88 x15 * x37 + 52 x15 * x40
   - 44 x15 * x41 - 68 x15 * x42 + 34 x15 * x44 + 50 x15 * x45
   - 6 x15 * x46 + 52 x15 * x48 - 62 x15 * x49 - 50 x15 * x50
   + 52 x15 * x51 + 22 x15 * x52 + 40 x15 * x54 - 78 x15 * x55
   - 28 x15 * x56 + 40 x15 * x57 - 96 x15 * x58 + 36 x15 * x61
   - 30 x15 * x62 - 46 x15 * x63 + 82 x15 * x64 - 60 x15 * x65
   - 10 x15 * x66 - 24 x15 * x67 - 4 x15 * x68 - 38 x15 * x69
   - 20 x15 * x70 + 68 x15 * x71 + 70 x15 * x72 - 24 x15 * x73
   + 6 x15 * x74 - 88 x15 * x75 - 14 x15 * x76 + 20 x15 * x77
   + 60 x15 * x78 + 42 x15 * x79 - 9 x16 ^2 - 72 x16 * x18 + 48 x16 * x19
   + 38 x16 * x22 - 28 x16 * x23 - 36 x16 * x24 + 10 x16 * x26
   - 74 x16 * x27 - 18 x16 * x28 - 40 x16 * x29 + 54 x16 * x30
   - 54 x16 * x32 + 76 x16 * x34 + 90 x16 * x37 + 80 x16 * x38
   + 90 x16 * x39 - 70 x16 * x40 - 88 x16 * x41 - 32 x16 * x44
   + 30 x16 * x46 + 42 x16 * x47 + 98 x16 * x48 + 86 x16 * x49
   + 10 x16 * x50 - 2 x16 * x51 - 10 x16 * x52 - 62 x16 * x55
   - 68 x16 * x56 - 82 x16 * x57 + 52 x16 * x58 - 52 x16 * x59
   + 76 x16 * x60 - 48 x16 * x62 + 86 x16 * x63 - 28 x16 * x64
   + 16 x16 * x65 + 78 x16 * x66 + 34 x16 * x68 - 42 x16 * x69
   - 52 x16 * x70 + 32 x16 * x71 + 38 x16 * x72 - 16 x16 * x74
   + 94 x16 * x76 - 40 x16 * x77 + 36 x16 * x78 - 14 x16 * x79
   + 76 x17 * x19 + 38 x17 * x22 - 68 x17 * x23 - 88 x17 * x24
   - 40 x17 * x27 + 76 x17 * x28 - 94 x17 * x29 + 58 x17 * x30
   + 72 x17 * x31 + 76 x17 * x32 - 36 x17 * x36 + 72 x17 * x37
   + 72 x17 * x38 - 2 x17 * x39 - 20 x17 * x41 - 14 x17 * x42
   - 98 x17 * x45 - 78 x17 * x46 - 24 x17 * x47 + 78 x17 * x48
   - 4 x17 * x52 - 44 x17 * x53 + 68 x17 * x54 - 86 x17 * x55
   + 64 x17 * x56 - 14 x17 * x57 - 46 x17 * x58 - 28 x17 * x61
   + 14 x17 * x63 - 34 x17 * x65 - 24 x17 * x66 - 42 x17 * x68
   + 8 x17 * x69 - 26 x17 * x70 + 76 x17 * x71 + 36 x17 * x73
   + 68 x17 * x75 + 86 x17 * x76 + 4 x17 * x77 + 66 x17 * x78
   + 50 x17 * x79 + 8 x18 * x19 + 62 x18 * x21 - 64 x18 * x23 + 4 x18 * x24
   + 72 x18 * x25 - 76 x18 * x26 + 16 x18 * x27 - 40 x18 * x28
   + 56 x18 * x30 + 92 x18 * x31 - 72 x18 * x32 + 64 x18 * x34
   - 12 x18 * x35 - 84 x18 * x36 + 22 x18 * x37 + 56 x18 * x38
   - 92 x18 * x39 - 98 x18 * x40 + 58 x18 * x41 - 92 x18 * x43
   - 86 x18 * x47 + 4 x18 * x48 + 88 x18 * x49 + 14 x18 * x50
   - 68 x18 * x54 - 22 x18 * x56 + 58 x18 * x57 - 54 x18 * x58
   + 78 x18 * x59 + 20 x18 * x61 + 96 x18 * x63 + 56 x18 * x64
   + 20 x18 * x67 - 30 x18 * x69 + 20 x18 * x70 + 14 x18 * x71
   + 68 x18 * x74 - 42 x18 * x75 - 18 x18 * x76 - 88 x18 * x77
   - 76 x18 * x78 + 40 x18 * x79 + 36 x19 ^2 - 74 x19 * x20 - 8 x19 * x23
   + 6 x19 * x26 - 48 x19 * x27 - 70 x19 * x28 + 58 x19 * x29
   + 38 x19 * x30 + 78 x19 * x31 + 50 x19 * x32 - 28 x19 * x33
   + 36 x19 * x34 + 56 x19 * x35 - 92 x19 * x36 - 8 x19 * x37
   + 56 x19 * x40 - 92 x19 * x41 - 12 x19 * x42 + 28 x19 * x43
   + 86 x19 * x44 - 76 x19 * x46 + 50 x19 * x48 + 44 x19 * x49
   - 52 x19 * x50 + 82 x19 * x51 + 60 x19 * x54 - 72 x19 * x55
   - 78 x19 * x57 + 6 x19 * x58 + 88 x19 * x59 + 16 x19 * x60
   + 94 x19 * x62 - 20 x19 * x64 + 34 x19 * x65 + 94 x19 * x66
   + 50 x19 * x67 + 74 x19 * x68 - 26 x19 * x69 + 26 x19 * x70
   + 26 x19 * x71 - 82 x19 * x74 + 34 x19 * x75 + 92 x19 * x76
   - 20 x19 * x77 + 14 x19 * x79 + 47 x20 ^2 + 70 x20 * x22 + 2 x20 * x23
   - 28 x20 * x24 + 8 x20 * x25 - 82 x20 * x26 - 38 x20 * x28
   - 56 x20 * x29 - 10 x20 * x31 + 86 x20 * x32 + 62 x20 * x36
   - 62 x20 * x38 + 22 x20 * x39 - 60 x20 * x40 - 42 x20 * x41
   + 16 x20 * x42 - 60 x20 * x44 + 72 x20 * x45 - 84 x20 * x46
   + 20 x20 * x49 - 76 x20 * x53 + 78 x20 * x54 - 80 x20 * x55
   - 46 x20 * x56 + 6 x20 * x57 + 82 x20 * x58 - 70 x20 * x59
   + 22 x20 * x60 - 60 x20 * x61 - 88 x20 * x65 + 80 x20 * x66
   - 14 x20 * x67 + 64 x20 * x68 + 32 x20 * x69 + 20 x20 * x70
   + 24 x20 * x71 + 88 x20 * x72 + 70 x20 * x73 + 88 x20 * x74
   + 78 x20 * x75 - 76 x20 * x76 - 58 x20 * x77 - 22 x20 * x79
   + 4 x21 * x25 - 64 x21 * x27 + 88 x21 * x28 - 16 x21 * x29
   - 10 x21 * x30 - 40 x21 * x31 + 96 x21 * x32 - 56 x21 * x33
   + 58 x21 * x34 - 22 x21 * x35 - 26 x21 * x36 - 46 x21 * x37
   + 98 x21 * x38 + 48 x21 * x39 - 42 x21 * x41 + 84 x21 * x42
   - 84 x21 * x43 + 2 x21 * x47 - 30 x21 * x48 + 88 x21 * x51
   - 24 x21 * x52 - 32 x21 * x53 + 6 x21 * x54 - 26 x21 * x55
   - 72 x21 * x56 - 2 x21 * x57 - 74 x21 * x58 + 24 x21 * x61
   - 84 x21 * x62 + 96 x21 * x63 + 62 x21 * x65 - 28 x21 * x67
   + 58 x21 * x68 - 58 x21 * x71 + 46 x21 * x72 - 40 x21 * x73
   + 64 x21 * x74 - 48 x21 * x75 + 22 x21 * x77 + 46 x21 * x79 - 39 x22 ^2
   - 36 x22 * x23 + 4 x22 * x25 - 34 x22 * x26 + 68 x22 * x29
   + 32 x22 * x30 + 86 x22 * x31 + 56 x22 * x36 - 34 x22 * x37
   - 76 x22 * x38 + 52 x22 * x39 - 66 x22 * x40 - 68 x22 * x42
   - 4 x22 * x43 + 92 x22 * x44 - 4 x22 * x45 - 6 x22 * x46 + 2 x22 * x48
   - 50 x22 * x50 - 86 x22 * x51 + 56 x22 * x52 + 66 x22 * x53
   + 42 x22 * x54 - 54 x22 * x55 - 86 x22 * x58 + 96 x22 * x59
   - 82 x22 * x60 + 88 x22 * x61 - 60 x22 * x62 + 20 x22 * x63
   + 18 x22 * x64 - 46 x22 * x66 - 36 x22 * x67 - 18 x22 * x68
   + 4 x22 * x69 + 2 x22 * x70 + 18 x22 * x73 - 72 x22 * x74 + 96 x22 * x76
   + 50 x22 * x78 + 62 x22 * x79 - 26 x23 ^2 - 10 x23 * x24 - 42 x23 * x25
   + 18 x23 * x26 + 50 x23 * x27 + 92 x23 * x28 + 36 x23 * x29
   + 38 x23 * x30 - 62 x23 * x31 - 58 x23 * x32 - 76 x23 * x33
   + 78 x23 * x34 + 24 x23 * x35 + 42 x23 * x36 - 58 x23 * x37
   + 98 x23 * x38 + 14 x23 * x39 - 64 x23 * x40 + 40 x23 * x43
   - 52 x23 * x44 + 16 x23 * x45 - 94 x23 * x46 + 14 x23 * x47
   + 84 x23 * x50 + 32 x23 * x52 - 60 x23 * x53 - 28 x23 * x54
   - 60 x23 * x55 + 56 x23 * x56 + 70 x23 * x59 - 20 x23 * x60
   + 16 x23 * x61 - 22 x23 * x64 - 58 x23 * x65 + 22 x23 * x66
   + 52 x23 * x67 - 16 x23 * x68 + 96 x23 * x70 + 8 x23 * x71
   - 54 x23 * x74 - 48 x23 * x75 + 30 x23 * x76 - 96 x23 * x77
   + 68 x23 * x78 + 41 x24 ^2 - 4 x24 * x25 + 80 x24 * x26 + 90 x24 * x27
   - 26 x24 * x29 - 20 x24 * x31 + 18 x24 * x33 - 18 x24 * x34
   - 8 x24 * x38 - 64 x24 * x39 - 80 x24 * x40 + 38 x24 * x42
   - 20 x24 * x43 + 62 x24 * x44 - 28 x24 * x46 - 62 x24 * x47
   + 4 x24 * x48 + 74 x24 * x49 - 34 x24 * x50 - 98 x24 * x51
   - 46 x24 * x52 + 86 x24 * x53 - 10 x24 * x54 - 72 x24 * x55
   - 28 x24 * x56 - 10 x24 * x57 - 24 x24 * x59 + 2 x24 * x60
   - 36 x24 * x61 + 38 x24 * x62 - 84 x24 * x63 - 74 x24 * x64
   - 10 x24 * x66 - 42 x24 * x67 - 98 x24 * x68 + 20 x24 * x69
   + 48 x24 * x70 - 18 x24 * x72 + 90 x24 * x74 - 12 x24 * x75
   - 88 x24 * x76 - 22 x24 * x77 + 26 x24 * x78 - 20 x25 ^2 - 34 x25 * x27
   - 64 x25 * x29 - 82 x25 * x30 + 84 x25 * x31 - 10 x25 * x32
   + 40 x25 * x33 + 94 x25 * x34 + 64 x25 * x35 - 74 x25 * x36
   - 88 x25 * x37 - 30 x25 * x39 + 98 x25 * x40 - 88 x25 * x42
   - 86 x25 * x43 + 2 x25 * x44 + 30 x25 * x46 - 20 x25 * x48 + 4 x25 * x49
   - 12 x25 * x52 + 20 x25 * x54 - 14 x25 * x55 + 4 x25 * x56 + 6 x25 * x57
   + 52 x25 * x59 - 36 x25 * x60 + 56 x25 * x61 + 64 x25 * x62
   - 2 x25 * x63 - 46 x25 * x65 - 20 x25 * x66 - 78 x25 * x68
   - 38 x25 * x69 - 12 x25 * x71 - 54 x25 * x72 - 86 x25 * x74
   + 38 x25 * x77 + 26 x25 * x78 - 26 x25 * x79 - 16 x26 ^2 + 14 x26 * x27
   - 54 x26 * x28 - 84 x26 * x29 - 34 x26 * x30 + 22 x26 * x33
   + 72 x26 * x34 + 30 x26 * x35 + 70 x26 * x38 - 6 x26 * x39
   - 22 x26 * x40 + 76 x26 * x41 - 64 x26 * x42 + 98 x26 * x43
   + 90 x26 * x44 - 28 x26 * x45 + 58 x26 * x46 + 62 x26 * x48
   + 36 x26 * x49 - 44 x26 * x50 - 14 x26 * x52 + 74 x26 * x54
   + 14 x26 * x55 - 92 x26 * x56 + 90 x26 * x57 + 66 x26 * x58
   + 72 x26 * x59 + 16 x26 * x60 + 62 x26 * x61 + 70 x26 * x62
   - 60 x26 * x65 + 70 x26 * x66 + 86 x26 * x67 + 94 x26 * x68
   + 16 x26 * x70 - 14 x26 * x71 - 74 x26 * x72 + 74 x26 * x73
   - 24 x26 * x74 - 38 x26 * x75 - 74 x26 * x77 - 80 x26 * x79
   + 40 x27 * x28 - 18 x27 * x29 + 78 x27 * x30 - 48 x27 * x31
   + 86 x27 * x32 + 92 x27 * x33 + 88 x27 * x34 - 18 x27 * x36
   + 28 x27 * x37 + 58 x27 * x38 - 74 x27 * x40 + 64 x27 * x42
   - 2 x27 * x43 + 14 x27 * x44 - 56 x27 * x45 + 36 x27 * x46
   + 16 x27 * x47 - 74 x27 * x48 - 96 x27 * x49 + 76 x27 * x50
   - 30 x27 * x52 + 98 x27 * x53 + 22 x27 * x55 - 66 x27 * x56
   - 6 x27 * x57 - 38 x27 * x58 - 14 x27 * x59 - 40 x27 * x60 - 4 x27 * x61
   - 30 x27 * x62 - 64 x27 * x63 - 62 x27 * x64 + 66 x27 * x65
   + 90 x27 * x66 - 68 x27 * x67 - 88 x27 * x68 - 22 x27 * x69
   + 36 x27 * x70 - 50 x27 * x71 - 46 x27 * x72 + 26 x27 * x75
   + 84 x27 * x76 - 66 x27 * x77 + 18 x27 * x78 - 76 x27 * x79 - 39 x28 ^2
   + 10 x28 * x31 - 64 x28 * x32 - 18 x28 * x34 - 82 x28 * x35
   + 10 x28 * x36 + 10 x28 * x37 - 42 x28 * x39 + 24 x28 * x40
   - 2 x28 * x41 + 94 x28 * x42 - 48 x28 * x43 - 70 x28 * x44
   - 92 x28 * x45 + 74 x28 * x46 - 90 x28 * x47 - 4 x28 * x48
   - 40 x28 * x50 + 80 x28 * x52 - 62 x28 * x56 - 72 x28 * x57
   - 84 x28 * x60 - 58 x28 * x61 + 52 x28 * x62 - 56 x28 * x63
   + 68 x28 * x64 + 48 x28 * x66 - 18 x28 * x67 - 84 x28 * x68
   - 6 x28 * x69 - 94 x28 * x70 + 82 x28 * x71 + 42 x28 * x72
   + 98 x28 * x73 + 60 x28 * x74 - 78 x28 * x77 - 78 x28 * x78
   - 16 x28 * x79 - 11 x29 ^2 - 2 x29 * x30 + 46 x29 * x34 + 16 x29 * x36
   + 88 x29 * x37 + 60 x29 * x39 - 42 x29 * x40 + 60 x29 * x41
   + 86 x29 * x42 - 88 x29 * x45 - 84 x29 * x46 + 26 x29 * x48
   - 34 x29 * x49 + 72 x29 * x50 + 76 x29 * x51 + 28 x29 * x53
   - 12 x29 * x54 - 22 x29 * x55 - 52 x29 * x56 + 40 x29 * x58
   + 94 x29 * x59 - 70 x29 * x60 - 34 x29 * x61 - 38 x29 * x62
   + 20 x29 * x66 - 36 x29 * x67 + 62 x29 * x68 + 12 x29 * x70
   + 42 x29 * x75 - 28 x29 * x76 + 86 x29 * x79 - 20 x30 * x31
   + 60 x30 * x32 + 30 x30 * x34 - 48 x30 * x36 + 70 x30 * x37
   + 12 x30 * x38 - 46 x30 * x41 - 48 x30 * x42 - 46 x30 * x43
   + 66 x30 * x44 - 32 x30 * x45 + 60 x30 * x46 + 82 x30 * x48
   + 86 x30 * x49 - 26 x30 * x51 + 76 x30 * x52 - 24 x30 * x54
   - 68 x30 * x56 - 40 x30 * x57 + 76 x30 * x58 + 36 x30 * x59
   - 44 x30 * x60 + 88 x30 * x62 + 30 x30 * x63 - 62 x30 * x64
   + 40 x30 * x65 + 66 x30 * x66 - 40 x30 * x67 + 80 x30 * x68
   - 60 x30 * x69 - 96 x30 * x70 - 44 x30 * x71 + 88 x30 * x73
   + 24 x30 * x74 - 46 x30 * x76 + 98 x30 * x79 - 19 x31 ^2 - 22 x31 * x32
   + 82 x31 * x33 - 92 x31 * x35 - 96 x31 * x36 + 34 x31 * x38
   + 12 x31 * x41 + 48 x31 * x42 - 72 x31 * x44 - 88 x31 * x45
   - 18 x31 * x48 - 20 x31 * x49 - 82 x31 * x50 + 16 x31 * x51
   + 72 x31 * x52 + 80 x31 * x53 - 60 x31 * x55 - 16 x31 * x61
   - 10 x31 * x62 - 2 x31 * x63 + 2 x31 * x65 + 22 x31 * x66 - 98 x31 * x67
   + 64 x31 * x70 + 76 x31 * x71 + 86 x31 * x72 + 16 x31 * x73
   - 52 x31 * x74 - 10 x31 * x76 - 6 x31 * x77 - 84 x31 * x78
   + 66 x31 * x79 + 48 x32 * x33 + 86 x32 * x34 - 68 x32 * x36
   + 12 x32 * x37 - 72 x32 * x39 + 54 x32 * x40 - 88 x32 * x41
   - 82 x32 * x42 - 92 x32 * x46 - 12 x32 * x47 + 52 x32 * x48
   - 26 x32 * x49 - 38 x32 * x50 + 78 x32 * x51 - 64 x32 * x53
   - 64 x32 * x56 + 70 x32 * x57 + 40 x32 * x58 + 66 x32 * x59
   - 78 x32 * x60 + 62 x32 * x62 + 30 x32 * x64 - 40 x32 * x65
   - 4 x32 * x66 + 26 x32 * x68 - 6 x32 * x69 - 94 x32 * x70 + 52 x32 * x71
   - 52 x32 * x74 + 14 x32 * x75 + 18 x32 * x76 + 6 x32 * x77
   + 24 x32 * x78 + 13 x33 ^2 + 30 x33 * x34 + 4 x33 * x35 - 44 x33 * x36
   - 98 x33 * x39 - 18 x33 * x40 + 78 x33 * x41 - 82 x33 * x42
   - 88 x33 * x43 + 82 x33 * x44 + 94 x33 * x47 + 98 x33 * x48
   + 46 x33 * x49 + 12 x33 * x50 - 28 x33 * x51 - 68 x33 * x52
   + 26 x33 * x53 + 90 x33 * x54 + 82 x33 * x55 - 92 x33 * x57
   - 86 x33 * x58 + 88 x33 * x59 + 46 x33 * x63 - 80 x33 * x64
   + 48 x33 * x65 - 62 x33 * x67 + 62 x33 * x68 - 90 x33 * x69
   + 86 x33 * x70 - 76 x33 * x71 - 62 x33 * x74 - 6 x33 * x75
   - 38 x33 * x77 - 86 x33 * x78 + 64 x33 * x79 - 16 x34 ^2 + 86 x34 * x35
   + 98 x34 * x36 + 70 x34 * x38 + 38 x34 * x39 - 46 x34 * x40
   - 4 x34 * x41 + 42 x34 * x42 - 32 x34 * x43 - 36 x34 * x45 - 2 x34 * x47
   - 14 x34 * x49 + 14 x34 * x50 + 80 x34 * x51 - 32 x34 * x52
   + 72 x34 * x56 + 10 x34 * x57 + 92 x34 * x58 + 90 x34 * x59
   - 94 x34 * x60 + 20 x34 * x62 - 8 x34 * x64 - 40 x34 * x65
   - 98 x34 * x66 + 12 x34 * x68 + 60 x34 * x69 - 8 x34 * x70
   + 56 x34 * x72 - 54 x34 * x73 + 50 x34 * x74 + 18 x34 * x75
   + 96 x34 * x76 + 34 x34 * x77 + 6 x34 * x79 + 32 x35 ^2 - 36 x35 * x36
   - 98 x35 * x37 - 64 x35 * x39 + 56 x35 * x40 - 66 x35 * x41
   + 20 x35 * x42 - 52 x35 * x44 + 42 x35 * x45 - 64 x35 * x46
   + 14 x35 * x47 - 38 x35 * x50 + 12 x35 * x52 - 66 x35 * x54
   + 90 x35 * x55 + 86 x35 * x56 + 10 x35 * x57 + 44 x35 * x58
   - 48 x35 * x59 + 90 x35 * x60 + 20 x35 * x62 - 64 x35 * x63
   - 64 x35 * x64 + 2 x35 * x67 + 58 x35 * x68 + 26 x35 * x70
   + 72 x35 * x71 - 20 x35 * x74 + 34 x35 * x75 + 56 x35 * x76
   - 28 x35 * x78 + 62 x35 * x79 + 32 x36 ^2 - 28 x36 * x37 + 76 x36 * x38
   + 76 x36 * x39 + 64 x36 * x40 - 84 x36 * x41 - 22 x36 * x42
   + 82 x36 * x43 - 96 x36 * x44 + 70 x36 * x45 - 44 x36 * x47
   + 80 x36 * x49 + 18 x36 * x50 + 66 x36 * x52 + 30 x36 * x53
   - 64 x36 * x54 + 92 x36 * x55 + 82 x36 * x56 + 80 x36 * x58
   - 54 x36 * x59 - 38 x36 * x60 - 42 x36 * x62 - 8 x36 * x63
   - 42 x36 * x64 - 32 x36 * x67 + 92 x36 * x69 - 96 x36 * x70
   - 80 x36 * x73 + 4 x36 * x74 - 50 x36 * x75 - 62 x36 * x76 + 6 x36 * x77
   - 58 x36 * x79 - 5 x37 ^2 - 62 x37 * x38 + 76 x37 * x40 - 38 x37 * x41
   - 42 x37 * x42 - 52 x37 * x44 + 82 x37 * x45 - 88 x37 * x46
   - 90 x37 * x47 + 28 x37 * x48 - 20 x37 * x49 + 98 x37 * x50
   - 76 x37 * x51 - 44 x37 * x53 + 62 x37 * x54 - 18 x37 * x55
   - 6 x37 * x56 - 28 x37 * x58 + 46 x37 * x59 - 6 x37 * x62 + 76 x37 * x64
   - 98 x37 * x67 + 18 x37 * x68 - 28 x37 * x69 - 22 x37 * x70
   - 98 x37 * x74 + 4 x37 * x75 - 10 x37 * x76 - 86 x37 * x77
   - 76 x37 * x79 + 28 x38 * x40 + 54 x38 * x41 + 68 x38 * x42
   + 4 x38 * x43 - 80 x38 * x44 - 44 x38 * x47 + 24 x38 * x48
   - 36 x38 * x50 + 56 x38 * x52 - 64 x38 * x53 - 28 x38 * x54
   - 80 x38 * x56 + 66 x38 * x57 + 72 x38 * x58 - 54 x38 * x60
   - 82 x38 * x61 + 92 x38 * x62 - 4 x38 * x63 - 54 x38 * x64
   - 58 x38 * x65 + 34 x38 * x66 - 20 x38 * x67 - 90 x38 * x68
   + 62 x38 * x69 - 44 x38 * x71 + 30 x38 * x72 + 24 x38 * x73
   + 32 x38 * x74 - 86 x38 * x75 - 48 x38 * x76 + 26 x38 * x78
   + 2 x38 * x79 - 58 x39 * x40 - 46 x39 * x41 - 28 x39 * x42
   + 78 x39 * x45 + 14 x39 * x46 + 6 x39 * x47 - 56 x39 * x49
   - 86 x39 * x50 - 88 x39 * x51 + 72 x39 * x52 - 46 x39 * x53
   + 68 x39 * x54 + 58 x39 * x57 + 70 x39 * x58 + 46 x39 * x59
   + 28 x39 * x60 + 28 x39 * x62 + 86 x39 * x63 + 40 x39 * x64
   - 62 x39 * x65 - 26 x39 * x66 - 60 x39 * x67 - 96 x39 * x69
   + 16 x39 * x70 + 42 x39 * x71 + 74 x39 * x73 + 50 x39 * x74
   - 20 x39 * x75 + 58 x39 * x79 + 12 x40 ^2 + 16 x40 * x41 + 20 x40 * x43
   - 78 x40 * x44 - 72 x40 * x46 + 46 x40 * x47 + 44 x40 * x48
   + 2 x40 * x50 + 56 x40 * x51 + 40 x40 * x52 - 80 x40 * x53
   - 42 x40 * x54 - 96 x40 * x55 + 18 x40 * x57 + 24 x40 * x58
   - 92 x40 * x59 + 34 x40 * x61 + 22 x40 * x62 + 70 x40 * x63
   + 48 x40 * x64 + 40 x40 * x65 - 94 x40 * x68 + 58 x40 * x69
   + 72 x40 * x70 - 88 x40 * x72 - 42 x40 * x73 + 46 x40 * x74
   - 2 x40 * x75 + 46 x40 * x77 - 84 x40 * x78 - 24 x40 * x79
   - 66 x41 * x42 - 8 x41 * x43 - 10 x41 * x45 - 52 x41 * x48
   + 86 x41 * x49 + 84 x41 * x53 - 52 x41 * x55 - 10 x41 * x56
   + 78 x41 * x57 - 90 x41 * x58 - 36 x41 * x59 + 28 x41 * x60
   + 58 x41 * x62 - 24 x41 * x64 + 12 x41 * x65 + 80 x41 * x67
   + 82 x41 * x68 - 52 x41 * x69 - 90 x41 * x70 - 24 x41 * x71
   + 50 x41 * x72 + 4 x41 * x73 + 2 x41 * x75 + 34 x41 * x77 + 62 x41 * x78
   + 40 x41 * x79 + 17 x42 ^2 + 8 x42 * x43 - 74 x42 * x44 + 78 x42 * x45
   - 20 x42 * x46 - 44 x42 * x47 + 50 x42 * x48 + 72 x42 * x49
   + 14 x42 * x52 + 52 x42 * x53 + 60 x42 * x54 - 28 x42 * x56
   - 90 x42 * x58 - 16 x42 * x59 + 88 x42 * x60 + 38 x42 * x61
   - 72 x42 * x62 - 98 x42 * x63 - 44 x42 * x65 - 8 x42 * x66 - 8 x42 * x67
   + 80 x42 * x68 - 70 x42 * x69 + 92 x42 * x70 + 22 x42 * x72
   - 36 x42 * x73 + 54 x42 * x74 - 90 x42 * x75 + 38 x42 * x76
   - 2 x42 * x79 - 13 x43 ^2 - 48 x43 * x44 + 10 x43 * x45 + 86 x43 * x46
   + 48 x43 * x47 + 6 x43 * x48 + 28 x43 * x49 - 40 x43 * x50
   + 80 x43 * x51 - 22 x43 * x52 - 96 x43 * x53 + 46 x43 * x57
   + 56 x43 * x58 + 88 x43 * x59 + 60 x43 * x60 + 88 x43 * x61
   - 14 x43 * x63 - 90 x43 * x65 + 92 x43 * x66 - 18 x43 * x67
   + 96 x43 * x69 - 30 x43 * x71 - 98 x43 * x72 + 88 x43 * x73
   - 94 x43 * x74 - 92 x43 * x75 + 86 x43 * x76 - 78 x43 * x77
   + 40 x43 * x79 + 32 x44 ^2 + 46 x44 * x45 + 76 x44 * x46 - 78 x44 * x47
   - 70 x44 * x48 - 48 x44 * x50 - 40 x44 * x51 - 30 x44 * x53
   - 24 x44 * x55 - 28 x44 * x56 + 26 x44 * x57 - 20 x44 * x59
   + 4 x44 * x60 - 74 x44 * x61 - 44 x44 * x62 - 50 x44 * x66
   + 78 x44 * x67 - 6 x44 * x68 + 34 x44 * x69 + 64 x44 * x70
   - 74 x44 * x71 + 74 x44 * x72 + 20 x44 * x73 + 98 x44 * x75
   - 4 x44 * x76 + 64 x44 * x79 - 17 x45 ^2 + 58 x45 * x46 + 48 x45 * x48
   - 22 x45 * x49 - 98 x45 * x50 - 22 x45 * x51 - 70 x45 * x52
   - 72 x45 * x53 - 88 x45 * x54 + 62 x45 * x56 - 6 x45 * x57
   - 90 x45 * x58 - 72 x45 * x61 + 6 x45 * x62 - 24 x45 * x65
   + 80 x45 * x66 - 40 x45 * x67 - 66 x45 * x68 + 32 x45 * x69
   - 44 x45 * x70 + 34 x45 * x71 - 76 x45 * x72 - 44 x45 * x73
   + 8 x45 * x74 + 2 x45 * x75 - 66 x45 * x76 + 4 x45 * x77 - 36 x45 * x78
   + 22 x46 ^2 + 28 x46 * x49 - 2 x46 * x51 + 50 x46 * x53 + 42 x46 * x54
   - 60 x46 * x55 - 38 x46 * x58 - 78 x46 * x59 - 2 x46 * x60 + 4 x46 * x61
   + 36 x46 * x62 + 78 x46 * x64 - 30 x46 * x65 + 90 x46 * x66
   + 56 x46 * x67 + 90 x46 * x68 - 32 x46 * x69 + 10 x46 * x70
   + 62 x46 * x73 - 52 x46 * x74 - 78 x46 * x76 - 4 x46 * x77
   - 60 x46 * x78 + 62 x46 * x79 - 70 x47 * x48 + 2 x47 * x49
   + 28 x47 * x53 + 52 x47 * x54 + 14 x47 * x55 - 96 x47 * x56
   - 12 x47 * x59 + 92 x47 * x60 - 62 x47 * x61 - 68 x47 * x62
   + 80 x47 * x63 - 12 x47 * x64 - 70 x47 * x65 + 34 x47 * x67
   + 48 x47 * x71 - 76 x47 * x72 + 30 x47 * x73 - 54 x47 * x74
   - 86 x47 * x75 + 80 x47 * x76 - 6 x47 * x77 - 12 x47 * x78
   + 20 x47 * x79 + 17 x48 ^2 - 98 x48 * x49 - 52 x48 * x50 - 68 x48 * x51
   + 42 x48 * x52 + 82 x48 * x55 + 24 x48 * x56 + 6 x48 * x58
   + 14 x48 * x60 + 48 x48 * x61 + 50 x48 * x62 - 44 x48 * x64
   + 84 x48 * x65 + 38 x48 * x67 + 94 x48 * x69 + 10 x48 * x70
   + 22 x48 * x71 + 64 x48 * x74 + 70 x48 * x75 - 8 x48 * x76
   - 52 x48 * x77 - 40 x48 * x78 + 26 x48 * x79 - 45 x49 ^2 + 24 x49 * x50
   + 34 x49 * x51 - 38 x49 * x52 + 58 x49 * x53 - 28 x49 * x54
   - 46 x49 * x55 - 76 x49 * x56 + 82 x49 * x57 - 16 x49 * x58
   - 50 x49 * x59 - 24 x49 * x61 - 88 x49 * x64 - 16 x49 * x65
   + 68 x49 * x66 - 38 x49 * x67 + 20 x49 * x69 + 8 x49 * x70
   - 28 x49 * x71 + 78 x49 * x72 - 56 x49 * x73 + 80 x49 * x74
   - 68 x49 * x75 - 90 x49 * x76 - 58 x49 * x77 + 22 x49 * x79
   - 76 x50 * x51 - 92 x50 * x52 - 18 x50 * x53 + 38 x50 * x54
   - 88 x50 * x55 - 6 x50 * x56 - 26 x50 * x57 + 16 x50 * x58
   - 98 x50 * x59 - 20 x50 * x60 + 70 x50 * x61 - 26 x50 * x62
   - 12 x50 * x63 + 78 x50 * x64 - 4 x50 * x65 - 28 x50 * x68
   + 12 x50 * x69 + 14 x50 * x70 - 52 x50 * x71 + 4 x50 * x73
   + 14 x50 * x74 + 36 x50 * x75 + 18 x50 * x76 - 20 x50 * x77
   + 32 x50 * x78 + 41 x51 ^2 + 44 x51 * x52 - 32 x51 * x53 + 56 x51 * x54
   + 64 x51 * x55 + 78 x51 * x56 + 94 x51 * x58 - 68 x51 * x59
   - 52 x51 * x60 - 26 x51 * x64 + 70 x51 * x65 - 64 x51 * x69
   - 34 x51 * x70 - 16 x51 * x71 + 36 x51 * x72 + 88 x51 * x75
   + 48 x51 * x76 + 38 x51 * x77 + 6 x51 * x78 - 36 x52 ^2 - 56 x52 * x53
   + 14 x52 * x54 + 42 x52 * x55 - 78 x52 * x56 + 30 x52 * x57
   + 22 x52 * x58 + 70 x52 * x59 - 14 x52 * x60 + 94 x52 * x62
   - 72 x52 * x63 + 44 x52 * x66 - 46 x52 * x67 + 24 x52 * x68
   + 60 x52 * x69 + 42 x52 * x70 + 14 x52 * x71 + 18 x52 * x73
   - 42 x52 * x74 + 62 x52 * x76 + 90 x52 * x77 + 42 x52 * x78
   - 34 x52 * x79 - 3 x53 ^2 + 16 x53 * x54 - 44 x53 * x55 + 48 x53 * x56
   - 66 x53 * x57 + 8 x53 * x58 + 76 x53 * x59 + 24 x53 * x61
   - 70 x53 * x62 - 60 x53 * x65 - 24 x53 * x66 - 34 x53 * x67
   - 58 x53 * x68 + 4 x53 * x69 + 54 x53 * x70 - 90 x53 * x72
   + 50 x53 * x73 + 36 x53 * x74 + 98 x53 * x75 - 58 x53 * x76
   + 82 x53 * x77 - 16 x53 * x78 + 74 x53 * x79 + 56 x54 * x55
   - 70 x54 * x56 + 70 x54 * x58 - 92 x54 * x59 + 86 x54 * x60
   + 16 x54 * x63 + 98 x54 * x64 + 66 x54 * x67 - 78 x54 * x68
   + 22 x54 * x70 - 72 x54 * x71 + 36 x54 * x72 - 66 x54 * x73
   + 44 x54 * x74 + 98 x54 * x76 - 18 x54 * x78 + 18 x54 * x79
   + 16 x55 * x56 - 96 x55 * x57 - 42 x55 * x58 + 10 x55 * x59
   - 34 x55 * x60 + 16 x55 * x61 + 14 x55 * x62 - 14 x55 * x63
   + 36 x55 * x64 - 54 x55 * x65 - 58 x55 * x66 - 90 x55 * x67
   + 92 x55 * x69 - 94 x55 * x71 + 56 x55 * x72 + 30 x55 * x73
   - 22 x55 * x74 + 86 x55 * x75 + 14 x55 * x76 + 54 x55 * x79 - 24 x56 ^2
   - 44 x56 * x57 - 48 x56 * x59 - 92 x56 * x60 - 56 x56 * x61
   - 34 x56 * x62 - 30 x56 * x63 - 66 x56 * x64 + 62 x56 * x65
   + 20 x56 * x66 + 34 x56 * x71 - 86 x56 * x72 + 84 x56 * x73
   - 40 x56 * x74 - 80 x56 * x75 + 10 x56 * x76 - 82 x56 * x77
   - 44 x56 * x78 + 35 x57 ^2 + 60 x57 * x58 + 98 x57 * x59 + 90 x57 * x60
   + 74 x57 * x61 + 18 x57 * x62 - 76 x57 * x64 - 84 x57 * x65
   + 84 x57 * x66 + 18 x57 * x67 + 88 x57 * x68 + 52 x57 * x69
   + 52 x57 * x70 + 42 x57 * x71 - 20 x57 * x72 - 40 x57 * x74
   - 16 x57 * x75 - 62 x57 * x77 - 96 x57 * x78 + 4 x57 * x79 + 10 x58 ^2
   + 64 x58 * x60 - 92 x58 * x61 - 44 x58 * x63 + 64 x58 * x64
   - 30 x58 * x66 + 30 x58 * x67 + 34 x58 * x68 - 64 x58 * x70
   - 48 x58 * x71 - 14 x58 * x72 + 70 x58 * x73 + 44 x58 * x74
   + 74 x58 * x75 + 42 x58 * x76 + 72 x58 * x77 + 6 x58 * x78
   - 40 x58 * x79 - 49 x59 ^2 + 58 x59 * x60 + 80 x59 * x61 - 4 x59 * x62
   - 24 x59 * x63 - 92 x59 * x64 - 68 x59 * x66 - 14 x59 * x68
   + 18 x59 * x69 - 16 x59 * x70 + 80 x59 * x71 - 92 x59 * x72
   + 22 x59 * x73 + 24 x59 * x74 - 72 x59 * x75 - 98 x59 * x76
   + 70 x59 * x77 - 16 x59 * x78 - 70 x59 * x79 - 34 x60 ^2 - 68 x60 * x61
   - 16 x60 * x64 - 92 x60 * x65 - 98 x60 * x67 - 74 x60 * x68
   - 78 x60 * x69 + 18 x60 * x70 + 64 x60 * x71 - 70 x60 * x72
   - 38 x60 * x77 - 28 x60 * x79 + 90 x61 * x62 - 88 x61 * x63
   - 10 x61 * x66 - 46 x61 * x71 + 50 x61 * x72 - 82 x61 * x73
   + 90 x61 * x74 + 24 x61 * x75 + 60 x61 * x76 + 70 x61 * x77
   - 62 x61 * x78 + 74 x61 * x79 + 12 x62 * x63 - 64 x62 * x64
   + 72 x62 * x67 + 54 x62 * x68 - 24 x62 * x70 + 98 x62 * x72
   - 64 x62 * x75 + 76 x62 * x79 + 44 x63 ^2 - 52 x63 * x64 + 26 x63 * x66
   - 82 x63 * x68 + 58 x63 * x69 - 62 x63 * x70 + 28 x63 * x71
   + 42 x63 * x72 + 74 x63 * x74 + 68 x63 * x75 + 40 x63 * x76
   + 70 x63 * x77 + 74 x63 * x78 - 10 x64 ^2 + 40 x64 * x65 - 88 x64 * x66
   - 38 x64 * x67 - 48 x64 * x68 + 86 x64 * x71 + 50 x64 * x72
   + 62 x64 * x73 - 22 x64 * x74 + 96 x64 * x77 + 40 x64 * x78
   - 28 x64 * x79 - 58 x65 * x66 - 98 x65 * x68 + 88 x65 * x69
   - 92 x65 * x71 + 10 x65 * x72 + 36 x65 * x74 + 36 x65 * x75
   + 76 x65 * x76 + 10 x65 * x77 - 84 x65 * x78 - 12 x65 * x79 + 30 x66 ^2
   + 12 x66 * x67 - 8 x66 * x68 - 24 x66 * x69 + 28 x66 * x70
   - 86 x66 * x71 - 88 x66 * x73 - 64 x66 * x76 - 42 x66 * x77
   - 68 x66 * x79 - 43 x67 ^2 + 98 x67 * x68 - 22 x67 * x69 + 52 x67 * x70
   - 42 x67 * x71 + 64 x67 * x72 - 76 x67 * x73 + 72 x67 * x75
   + 80 x67 * x76 - 48 x67 * x77 - 38 x67 * x78 + 94 x68 * x72
   + 68 x68 * x73 + 32 x68 * x75 + 12 x68 * x76 + 52 x68 * x77
   + 44 x68 * x78 + 60 x68 * x79 - 37 x69 ^2 - 92 x69 * x70 - 30 x69 * x71
   + 24 x69 * x72 + 98 x69 * x73 - 66 x69 * x74 + 6 x69 * x77
   - 78 x69 * x79 + 94 x70 * x71 - 34 x70 * x72 - 92 x70 * x73
   + 72 x70 * x74 - 46 x70 * x75 - 84 x70 * x76 + 86 x70 * x78
   - 58 x70 * x79 - 33 x71 ^2 + 12 x71 * x73 - 70 x71 * x74 - 14 x71 * x77
   - 90 x71 * x78 + 36 x71 * x79 + 10 x72 ^2 + 92 x72 * x73 + 66 x72 * x74
   + 44 x72 * x75 - 4 x72 * x76 - 74 x72 * x77 + 22 x72 * x78
   + 60 x72 * x79 - 34 x73 ^2 + 70 x73 * x75 + 96 x73 * x76 + 88 x73 * x77
   + 96 x73 * x79 + 12 x74 ^2 - 46 x74 * x75 + 50 x74 * x76 - 40 x74 * x78
   - 21 x75 ^2 + 96 x75 * x76 + 64 x75 * x77 - 90 x75 * x78 + 34 x76 ^2
   + 52 x76 * x78 - 98 x76 * x79 + 80 x77 * x78 + 22 x77 * x79 - 22 x78 ^2
   - 72 x78 * x79 + 12 x79 ^2 ] / 2 
Subject To
Bounds
 x0 <= 1
 x1 <= 1
 x2 <= 1
 x3 <= 1
 x4 <= 1
 x5 <= 1
 x6 <= 1
 x7 <= 1
 x8 <= 1
 x9 <= 1
 x10 <= 1
 x11 <= 1
 x12 <= 1
 x13 <= 1
 x14 <= 1
 x15 <= 1
 x16 <= 1
 x17 <= 1
 x18 <= 1
 x19 <= 1
 x20 <= 1
 x21 <= 1
 x22 <= 1
 x23 <= 1
 x24 <= 1
 x25 <= 1
 x26 <= 1
 x27 <= 1
 x28 <= 1
 x29 <= 1
 x30 <= 1
 x31 <= 1
 x32 <= 1
 x33 <= 1
 x34 <= 1
 x35 <= 1
 x36 <= 1
 x37 <= 1
 x38 <= 1
 x39 <= 1
 x40 <= 1
 x41 <= 1
 x42 <= 1
 x43 <= 1
 x44 <= 1
 x45 <= 1
 x46 <= 1
 x47 <= 1
 x48 <= 1
 x49 <= 1
 x50 <= 1
 x51 <= 1
 x52 <= 1
 x53 <= 1
 x54 <= 1
 x55 <= 1
 x56 <= 1
 x57 <= 1
 x58 <= 1
 x59 <= 1
 x60 <= 1
 x61 <= 1
 x62 <= 1
 x63 <= 1
 x64 <= 1
 x65 <= 1
 x66 <= 1
 x67 <= 1
 x68 <= 1
 x69 <= 1
 x70 <= 1
 x71 <= 1
 x72 <= 1
 x73 <= 1
 x74 <= 1
 x75 <= 1
 x76 <= 1
 x77 <= 1
 x78 <= 1
 x79 <= 1
End
